; printing sygus problem  

(set-logic LIA)
(declare-var yearInt_147-8-147-37 Int)

(synth-fun __SYNTHFUN_f_147-8-147-37((yearInt Int)) Bool
((NTbool Bool)(NTInt Int))
((NTbool Bool ((not NTbool) (and NTbool NTbool) (or NTbool NTbool) (ite NTbool NTbool NTbool) (= NTInt NTInt) (< NTInt NTInt) (> NTInt NTInt) ))
(NTInt Int (yearInt 0 1 (- NTInt) (+ NTInt NTInt) (- NTInt NTInt) (ite NTbool NTInt NTInt) ))
)
)

(constraint (or (and (=> (= yearInt_147-8-147-37 1980) (= (__SYNTHFUN_f_147-8-147-37 yearInt_147-8-147-37 ) true)) (and (=> (= yearInt_147-8-147-37 80) (= (__SYNTHFUN_f_147-8-147-37 yearInt_147-8-147-37 ) true)) (and (=> (= yearInt_147-8-147-37 89) (= (__SYNTHFUN_f_147-8-147-37 yearInt_147-8-147-37 ) true)) (and (=> (= yearInt_147-8-147-37 1980) (= (__SYNTHFUN_f_147-8-147-37 yearInt_147-8-147-37 ) true)) (and (=> (= yearInt_147-8-147-37 1980) (= (__SYNTHFUN_f_147-8-147-37 yearInt_147-8-147-37 ) true)) (and (=> (= yearInt_147-8-147-37 2010) (= (__SYNTHFUN_f_147-8-147-37 yearInt_147-8-147-37 ) false)) (and (=> (= yearInt_147-8-147-37 1980) (= (__SYNTHFUN_f_147-8-147-37 yearInt_147-8-147-37 ) true)) (and (=> (= yearInt_147-8-147-37 1980) (= (__SYNTHFUN_f_147-8-147-37 yearInt_147-8-147-37 ) true)) (and (=> (= yearInt_147-8-147-37 1980) (= (__SYNTHFUN_f_147-8-147-37 yearInt_147-8-147-37 ) true)) (=> (= yearInt_147-8-147-37 1980) (= (__SYNTHFUN_f_147-8-147-37 yearInt_147-8-147-37 ) true))))))))))) (and (=> (= yearInt_147-8-147-37 1980) (= (__SYNTHFUN_f_147-8-147-37 yearInt_147-8-147-37 ) true)) (and (=> (= yearInt_147-8-147-37 80) (= (__SYNTHFUN_f_147-8-147-37 yearInt_147-8-147-37 ) true)) (and (=> (= yearInt_147-8-147-37 89) (= (__SYNTHFUN_f_147-8-147-37 yearInt_147-8-147-37 ) true)) (and (=> (= yearInt_147-8-147-37 1980) (= (__SYNTHFUN_f_147-8-147-37 yearInt_147-8-147-37 ) true)) (and (=> (= yearInt_147-8-147-37 1980) (= (__SYNTHFUN_f_147-8-147-37 yearInt_147-8-147-37 ) true)) (and (=> (= yearInt_147-8-147-37 2010) (= (__SYNTHFUN_f_147-8-147-37 yearInt_147-8-147-37 ) true)) (and (=> (= yearInt_147-8-147-37 1980) (= (__SYNTHFUN_f_147-8-147-37 yearInt_147-8-147-37 ) true)) (and (=> (= yearInt_147-8-147-37 1980) (= (__SYNTHFUN_f_147-8-147-37 yearInt_147-8-147-37 ) true)) (and (=> (= yearInt_147-8-147-37 1980) (= (__SYNTHFUN_f_147-8-147-37 yearInt_147-8-147-37 ) true)) (=> (= yearInt_147-8-147-37 1980) (= (__SYNTHFUN_f_147-8-147-37 yearInt_147-8-147-37 ) true)))))))))))))
(constraint (or (and (=> (= yearInt_147-8-147-37 2009) (= (__SYNTHFUN_f_147-8-147-37 yearInt_147-8-147-37 ) true)) (and (=> (= yearInt_147-8-147-37 2010) (= (__SYNTHFUN_f_147-8-147-37 yearInt_147-8-147-37 ) true)) (and (=> (= yearInt_147-8-147-37 0) (= (__SYNTHFUN_f_147-8-147-37 yearInt_147-8-147-37 ) true)) (and (=> (= yearInt_147-8-147-37 12) (= (__SYNTHFUN_f_147-8-147-37 yearInt_147-8-147-37 ) true)) (and (=> (= yearInt_147-8-147-37 1979) (= (__SYNTHFUN_f_147-8-147-37 yearInt_147-8-147-37 ) true)) (and (=> (= yearInt_147-8-147-37 1978) (= (__SYNTHFUN_f_147-8-147-37 yearInt_147-8-147-37 ) true)) (and (=> (= yearInt_147-8-147-37 2010) (= (__SYNTHFUN_f_147-8-147-37 yearInt_147-8-147-37 ) true)) (and (=> (= yearInt_147-8-147-37 2006) (= (__SYNTHFUN_f_147-8-147-37 yearInt_147-8-147-37 ) true)) (and (=> (= yearInt_147-8-147-37 1980) (= (__SYNTHFUN_f_147-8-147-37 yearInt_147-8-147-37 ) true)) (and (=> (= yearInt_147-8-147-37 2006) (= (__SYNTHFUN_f_147-8-147-37 yearInt_147-8-147-37 ) true)) (=> (= yearInt_147-8-147-37 80) (= (__SYNTHFUN_f_147-8-147-37 yearInt_147-8-147-37 ) true)))))))))))) (and (=> (= yearInt_147-8-147-37 0) (= (__SYNTHFUN_f_147-8-147-37 yearInt_147-8-147-37 ) true)) (and (=> (= yearInt_147-8-147-37 2009) (= (__SYNTHFUN_f_147-8-147-37 yearInt_147-8-147-37 ) true)) (and (=> (= yearInt_147-8-147-37 2010) (= (__SYNTHFUN_f_147-8-147-37 yearInt_147-8-147-37 ) false)) (and (=> (= yearInt_147-8-147-37 2010) (= (__SYNTHFUN_f_147-8-147-37 yearInt_147-8-147-37 ) true)) (and (=> (= yearInt_147-8-147-37 12) (= (__SYNTHFUN_f_147-8-147-37 yearInt_147-8-147-37 ) true)) (and (=> (= yearInt_147-8-147-37 2006) (= (__SYNTHFUN_f_147-8-147-37 yearInt_147-8-147-37 ) true)) (and (=> (= yearInt_147-8-147-37 1978) (= (__SYNTHFUN_f_147-8-147-37 yearInt_147-8-147-37 ) true)) (and (=> (= yearInt_147-8-147-37 2006) (= (__SYNTHFUN_f_147-8-147-37 yearInt_147-8-147-37 ) true)) (and (=> (= yearInt_147-8-147-37 80) (= (__SYNTHFUN_f_147-8-147-37 yearInt_147-8-147-37 ) true)) (and (=> (= yearInt_147-8-147-37 1980) (= (__SYNTHFUN_f_147-8-147-37 yearInt_147-8-147-37 ) true)) (and (=> (= yearInt_147-8-147-37 20) (= (__SYNTHFUN_f_147-8-147-37 yearInt_147-8-147-37 ) false)) (=> (= yearInt_147-8-147-37 1979) (= (__SYNTHFUN_f_147-8-147-37 yearInt_147-8-147-37 ) true)))))))))))))))
(check-synth)


